p cnf 12 50 
-9 -7 -1 0
9 -10 1 0
-10 1 -4 0
8 -2 7 0
-1 -9 8 0
-9 -7 4 0
5 -7 -9 0
5 -2 1 0
6 -12 10 0
9 7 8 0
10 4 3 0
1 8 5 0
3 -4 11 0
-10 -12 -9 0
-5 1 8 0
-12 11 -2 0
-5 7 3 0
-11 4 -8 0
9 5 4 0
-2 -12 -1 0
1 -6 -4 0
-7 -10 -1 0
-6 4 -10 0
-5 9 1 0
-2 5 8 0
-5 -9 6 0
-2 11 8 0
6 2 5 0
-6 9 1 0
-5 11 -9 0
6 -7 12 0
12 5 -3 0
7 -10 -8 0
11 -7 -12 0
10 5 11 0
-1 3 11 0
9 12 -7 0
8 -6 -9 0
2 6 -4 0
10 -8 -4 0
-6 -3 8 0
-3 12 10 0
5 -9 2 0
-2 -9 -10 0
9 8 5 0
3 5 4 0
1 -11 5 0
8 -9 -2 0
-6 7 -11 0
6 -9 -1 0
